NAME : pr226.211817.tour
COMMENT : Cost = 34846_211817
COMMENT : Found by LKH [Keld Helsgaun] Thu Nov 16 17:54:31 2017
TYPE : TOUR
DIMENSION : 235
TOUR_SECTION
1
2
227
3
228
4
229
111
103
105
112
113
104
106
114
115
107
108
116
117
109
110
118
119
126
128
120
121
127
129
122
123
131
130
124
125
132
191
192
193
194
195
196
197
198
199
200
201
202
203
204
205
206
207
208
209
210
211
212
213
214
215
216
217
218
219
220
221
222
223
224
225
226
86
85
84
83
82
81
80
79
78
77
76
75
74
231
160
159
158
157
156
70
72
233
8
11
12
16
17
19
50
49
48
33
32
31
36
37
44
45
46
47
43
41
40
42
39
38
35
34
30
29
28
27
26
25
24
23
22
21
20
18
15
14
10
9
7
6
5
230
155
234
69
66
161
162
163
164
165
166
167
168
169
170
171
172
173
174
175
176
177
178
179
180
181
182
183
184
185
186
187
188
189
190
136
135
134
133
232
13
67
65
51
52
53
54
55
56
57
58
59
60
61
62
63
95
87
89
88
90
91
92
93
94
154
153
152
151
149
148
150
143
142
141
140
147
145
139
138
146
144
137
102
101
100
99
98
97
96
64
68
71
235
73
-1
EOF
